
Gurobi 10.0.1 (linux64) logging started Fri May 26 00:30:36 2023

Set parameter LogFile to value "logFiles/N-1L-B/N-1L-13U-10F-23V-120D/basic-05-26-2023, 00-30-H70-P50-O15.log"
Gurobi Optimizer version 10.0.1 build v10.0.1rc0 (linux64)

CPU model: Intel(R) Xeon(R) Gold 5115 CPU @ 2.40GHz, instruction set [SSE2|AVX|AVX2|AVX512]
Thread count: 20 physical cores, 40 logical processors, using up to 20 threads

Optimize a model with 59697 rows, 924038 columns and 4325949 nonzeros
Model fingerprint: 0x2aeb320f
Variable types: 216034 continuous, 708004 integer (708004 binary)
Coefficient statistics:
  Matrix range     [1e+00, 2e+05]
  Objective range  [4e+01, 3e+07]
  Bounds range     [1e+00, 1e+00]
  RHS range        [1e+00, 1e+06]
Presolve removed 27638 rows and 27591 columns (presolve time = 5s) ...
Presolve removed 27638 rows and 27591 columns (presolve time = 10s) ...
Presolve removed 27648 rows and 27836 columns (presolve time = 15s) ...
Presolve removed 27648 rows and 27836 columns (presolve time = 20s) ...
Presolve removed 27648 rows and 27836 columns (presolve time = 25s) ...
Presolve removed 27804 rows and 32135 columns (presolve time = 30s) ...
Presolve removed 27769 rows and 32100 columns
Presolve time: 30.05s
Presolved: 31928 rows, 891938 columns, 3797016 nonzeros
Variable types: 211321 continuous, 680617 integer (680617 binary)
Deterministic concurrent LP optimizer: primal simplex, dual simplex, and barrier
Showing barrier log only...

Root barrier log...

Ordering time: 1.11s

Barrier statistics:
 AA' NZ     : 2.076e+06
 Factor NZ  : 6.900e+06 (roughly 400 MB of memory)
 Factor Ops : 9.768e+09 (less than 1 second per iteration)
 Threads    : 17

                  Objective                Residual
Iter       Primal          Dual         Primal    Dual     Compl     Time
   0  -1.75662136e+16  4.07250956e+13  1.07e+09 4.77e+06  9.46e+11    38s
   1  -4.00348883e+15  4.39381723e+13  2.43e+08 7.11e+06  2.17e+11    39s
   2  -1.97581893e+15  4.04590680e+13  1.20e+08 5.28e+05  1.09e+11    39s
   3  -3.69021115e+13  2.76395977e+13  2.26e+06 3.58e-08  2.08e+09    40s
   4  -1.52011519e+13  1.08829866e+13  9.31e+05 3.46e-08  8.63e+08    40s
   5  -7.50844000e+12  1.00730919e+13  4.60e+05 3.64e-08  4.32e+08    41s
   6  -6.58132032e+12  9.96137331e+12  4.03e+05 4.38e-08  3.80e+08    41s
   7  -3.10146349e+12  9.06396063e+12  1.90e+05 2.53e-08  1.82e+08    42s
   8  -1.46715981e+12  7.92844352e+12  8.98e+04 3.17e-08  8.67e+07    42s
   9  -5.49690607e+11  6.83200150e+12  3.37e+04 2.11e-08  3.38e+07    42s
  10  -3.32701327e+11  5.92895654e+12  2.04e+04 3.28e-08  2.07e+07    43s
  11  -1.95374237e+11  4.66305431e+12  1.21e+04 4.10e-08  1.22e+07    43s
  12  -1.58381894e+11  4.05628779e+12  9.79e+03 1.19e-07  9.77e+06    44s
  13  -1.07809579e+11  3.18860400e+12  6.70e+03 2.05e-08  6.61e+06    44s
  14  -8.70536084e+10  3.00148514e+12  5.43e+03 2.05e-08  5.53e+06    44s
  15  -6.32532087e+10  1.75601312e+12  3.98e+03 1.65e-08  3.49e+06    45s
  16  -2.16748940e+10  6.00446014e+11  1.44e+03 4.77e-07  1.10e+06    45s
  17  -4.59445463e+08  1.51325518e+11  1.42e+02 1.79e-07  1.46e+05    45s
  18  -9.35265203e+07  7.62362541e+10  1.20e+02 2.92e-07  9.01e+04    46s
  19   4.53054903e+08  6.19963336e+10  8.64e+01 3.95e-07  6.82e+04    46s
  20   5.93497816e+08  5.54283837e+10  7.80e+01 3.37e-07  6.10e+04    46s
  21   7.51186216e+08  5.09919631e+10  6.85e+01 3.58e-07  5.46e+04    47s
  22   1.10620389e+09  4.15157745e+10  4.74e+01 3.58e-07  4.08e+04    47s
  23   1.45352380e+09  3.48825162e+10  2.69e+01 3.58e-07  2.91e+04    48s
  24   1.52553937e+09  2.96509736e+10  2.29e+01 3.58e-07  2.46e+04    48s
  25   1.59687108e+09  2.40496167e+10  1.91e+01 2.98e-07  2.00e+04    49s
  26   1.67454413e+09  1.92801291e+10  1.50e+01 2.27e-07  1.58e+04    49s
  27   1.67859715e+09  1.84236025e+10  1.48e+01 3.68e-07  1.52e+04    50s
  28   1.73143629e+09  1.55491536e+10  1.22e+01 3.11e-07  1.26e+04    50s
  29   1.79153427e+09  1.28073548e+10  9.40e+00 3.29e-07  9.94e+03    51s
  30   1.82925636e+09  1.05652893e+10  7.68e+00 2.89e-07  8.05e+03    51s
  31   1.85563319e+09  9.56585070e+09  6.59e+00 2.91e-07  7.05e+03    52s
  32   1.87782969e+09  8.69034033e+09  5.77e+00 2.50e-07  6.24e+03    52s
  33   1.91158044e+09  7.57763914e+09  4.54e+00 3.02e-07  5.09e+03    53s
  34   1.94110554e+09  6.81392537e+09  3.59e+00 2.59e-07  4.23e+03    53s
  35   1.95747561e+09  6.06982531e+09  3.15e+00 3.20e-07  3.56e+03    54s
  36   1.97387111e+09  5.77534001e+09  2.91e+00 3.12e-07  3.26e+03    54s
  37   1.99083115e+09  5.40051187e+09  2.61e+00 3.01e-07  2.88e+03    55s
  38   2.02514908e+09  5.03384759e+09  2.13e+00 3.52e-07  2.43e+03    55s
  39   2.03646095e+09  4.92783045e+09  1.94e+00 3.44e-07  2.29e+03    56s
  40   2.04671309e+09  4.27994018e+09  1.79e+00 3.07e-07  1.78e+03    56s
  41   2.06682181e+09  3.92624835e+09  1.51e+00 2.79e-07  1.45e+03    57s
  42   2.08781753e+09  3.61594505e+09  1.27e+00 3.80e-07  1.16e+03    57s
  43   2.11190828e+09  3.18217047e+09  9.20e-01 4.64e-07  7.82e+02    57s
  44   2.14623463e+09  2.70242580e+09  5.24e-01 2.58e-07  3.83e+02    58s
  45   2.18454934e+09  2.53672997e+09  2.77e-01 5.00e-07  2.27e+02    58s
  46   2.19267328e+09  2.48627609e+09  2.48e-01 3.28e-07  1.89e+02    59s
  47   2.19739164e+09  2.45584509e+09  2.34e-01 3.93e-07  1.66e+02    59s
  48   2.20082965e+09  2.41669984e+09  2.22e-01 4.05e-07  1.40e+02    60s
  49   2.20558930e+09  2.39550906e+09  2.07e-01 2.85e-07  1.23e+02    60s
  50   2.21133611e+09  2.39191173e+09  1.89e-01 4.47e-07  1.16e+02    60s
  51   2.21363544e+09  2.38934115e+09  1.82e-01 3.68e-07  1.13e+02    60s
  52   2.21517073e+09  2.38580142e+09  1.78e-01 3.58e-07  1.09e+02    61s
  53   2.21714576e+09  2.38252232e+09  1.72e-01 3.32e-07  1.06e+02    61s
  54   2.22039099e+09  2.37778409e+09  1.61e-01 3.32e-07  1.00e+02    61s
  55   2.22163621e+09  2.36953197e+09  1.58e-01 4.51e-07  9.45e+01    62s
  56   2.22447533e+09  2.36745749e+09  1.50e-01 3.38e-07  9.10e+01    62s
  57   2.22643944e+09  2.36216161e+09  1.44e-01 3.49e-07  8.63e+01    63s
  58   2.22906444e+09  2.35082296e+09  1.37e-01 4.15e-07  7.73e+01    63s
  59   2.23219779e+09  2.34732582e+09  1.28e-01 4.08e-07  7.28e+01    64s
  60   2.23693465e+09  2.33867989e+09  1.16e-01 3.85e-07  6.42e+01    64s
  61   2.23929447e+09  2.33240208e+09  1.09e-01 3.35e-07  5.87e+01    65s
  62   2.23974412e+09  2.32998185e+09  1.08e-01 3.60e-07  5.69e+01    65s
  63   2.24227057e+09  2.32766165e+09  1.01e-01 4.44e-07  5.37e+01    66s
  64   2.24500861e+09  2.32528199e+09  9.42e-02 4.47e-07  5.03e+01    66s
  65   2.24761795e+09  2.32024683e+09  8.67e-02 5.29e-07  4.54e+01    67s
  66   2.24925263e+09  2.31828560e+09  8.22e-02 4.70e-07  4.31e+01    67s
  67   2.24958037e+09  2.31694718e+09  8.13e-02 4.19e-07  4.21e+01    68s
  68   2.25301415e+09  2.31501820e+09  7.21e-02 3.65e-07  3.86e+01    68s
  69   2.25470889e+09  2.31244081e+09  6.82e-02 3.46e-07  3.59e+01    68s
  70   2.25657482e+09  2.31141970e+09  6.49e-02 4.18e-07  3.41e+01    69s
  71   2.25956687e+09  2.30927122e+09  5.96e-02 3.78e-07  3.08e+01    69s
  72   2.26129648e+09  2.30494727e+09  5.54e-02 3.61e-07  2.71e+01    70s
  73   2.26265641e+09  2.30245780e+09  5.20e-02 2.96e-07  2.47e+01    70s
  74   2.26504358e+09  2.29985184e+09  4.58e-02 3.94e-07  2.15e+01    71s
  75   2.26729965e+09  2.29981022e+09  4.01e-02 3.24e-07  2.00e+01    71s
  76   2.27058860e+09  2.29922272e+09  3.32e-02 2.83e-07  1.75e+01    72s
  77   2.27165616e+09  2.29775735e+09  3.11e-02 3.75e-07  1.59e+01    72s
  78   2.27254314e+09  2.29682560e+09  2.98e-02 3.53e-07  1.48e+01    73s
  79   2.27415099e+09  2.29592392e+09  2.68e-02 2.51e-07  1.33e+01    73s
  80   2.27666124e+09  2.29518617e+09  2.22e-02 2.67e-07  1.13e+01    74s
  81   2.27747983e+09  2.29377816e+09  2.09e-02 2.80e-07  9.90e+00    74s
  82   2.28048476e+09  2.29348563e+09  1.59e-02 3.64e-07  7.86e+00    75s
  83   2.28164702e+09  2.29315335e+09  1.40e-02 2.87e-07  6.95e+00    75s
  84   2.28353004e+09  2.29280202e+09  1.13e-02 2.80e-07  5.60e+00    76s
  85   2.28507601e+09  2.29245736e+09  8.92e-03 3.50e-07  4.45e+00    76s
  86   2.28552182e+09  2.29202945e+09  8.23e-03 2.89e-07  3.92e+00    77s
  87   2.28703305e+09  2.29171582e+09  5.86e-03 1.83e-07  2.82e+00    77s
  88   2.28737127e+09  2.29150543e+09  5.33e-03 2.07e-07  2.49e+00    78s
  89   2.28830646e+09  2.29139160e+09  3.88e-03 1.68e-07  1.85e+00    78s
  90   2.28900673e+09  2.29128594e+09  2.81e-03 1.71e-07  1.37e+00    79s
  91   2.28936390e+09  2.29112247e+09  2.24e-03 2.37e-07  1.06e+00    79s
  92   2.28963855e+09  2.29109930e+09  1.83e-03 2.08e-07  8.77e-01    80s
  93   2.29002518e+09  2.29102793e+09  1.24e-03 1.58e-07  6.01e-01    80s
  94   2.29038024e+09  2.29095695e+09  6.87e-04 1.58e-07  3.45e-01    81s
  95   2.29053612e+09  2.29090414e+09  4.46e-04 1.86e-07  2.20e-01    81s
  96   2.29061739e+09  2.29089018e+09  3.23e-04 1.95e-07  1.63e-01    82s
  97   2.29069202e+09  2.29086735e+09  2.14e-04 1.76e-07  1.05e-01    82s
  98   2.29069832e+09  2.29086062e+09  2.04e-04 1.59e-07  9.75e-02    83s
  99   2.29071806e+09  2.29085991e+09  1.75e-04 1.87e-07  8.51e-02    83s
 100   2.29073223e+09  2.29085959e+09  1.54e-04 1.99e-07  7.63e-02    84s
 101   2.29077084e+09  2.29085146e+09  9.64e-05 1.97e-07  4.83e-02    84s
 102   2.29080432e+09  2.29084121e+09  4.66e-05 2.42e-07  2.22e-02    84s
 103   2.29082876e+09  2.29083909e+09  1.20e-05 2.19e-07  6.18e-03    85s
 104   2.29083302e+09  2.29083756e+09  5.99e-06 2.47e-07  2.74e-03    85s
 105   2.29083544e+09  2.29083734e+09  2.59e-06 2.07e-07  1.15e-03    85s
 106   2.29083713e+09  2.29083730e+09  8.57e-07 1.88e-07  1.01e-04    86s
 107   2.29083729e+09  2.29083729e+09  8.59e-08 1.95e-07  2.12e-06    86s
 108   2.29083729e+09  2.29083729e+09  1.92e-09 1.39e-07  1.33e-10    86s

Barrier solved model in 108 iterations and 86.50 seconds (73.07 work units)
Optimal objective 2.29083729e+09


Root crossover log...

   27567 DPushes remaining with DInf 0.0000000e+00                87s
       0 DPushes remaining with DInf 0.0000000e+00                87s

    1020 PPushes remaining with PInf 0.0000000e+00                87s
       0 PPushes remaining with PInf 0.0000000e+00                87s

  Push phase complete: Pinf 0.0000000e+00, Dinf 1.0160910e-07     87s


Root simplex log...

Iteration    Objective       Primal Inf.    Dual Inf.      Time
   28498    2.2908373e+09   0.000000e+00   0.000000e+00     87s
Concurrent spin time: 0.02s

Solved with barrier
   28549    2.2908373e+09   0.000000e+00   0.000000e+00     88s
Extra simplex iterations after uncrush: 51

Root relaxation: objective 2.290837e+09, 28549 iterations, 54.79 seconds (36.50 work units)
Total elapsed time = 90.17s

    Nodes    |    Current Node    |     Objective Bounds      |     Work
 Expl Unexpl |  Obj  Depth IntInf | Incumbent    BestBd   Gap | It/Node Time

     0     0 2.2908e+09    0  278          - 2.2908e+09      -     -   91s
     0     0 2.2908e+09    0  277          - 2.2908e+09      -     -   92s
     0     0 2.2908e+09    0  277          - 2.2908e+09      -     -   93s
     0     0 2.2908e+09    0  277          - 2.2908e+09      -     -   94s
     0     0 2.2908e+09    0  278          - 2.2908e+09      -     -   95s
     0     0 2.2908e+09    0  273          - 2.2908e+09      -     -  100s
     0     0 2.2908e+09    0  274          - 2.2908e+09      -     -  101s
     0     0 2.2908e+09    0  273          - 2.2908e+09      -     -  102s
     0     0 2.2908e+09    0  273          - 2.2908e+09      -     -  102s
     0     0 2.2908e+09    0  273          - 2.2908e+09      -     -  103s
     0     0 2.2908e+09    0  273          - 2.2908e+09      -     -  103s
H    0     0                    2.256664e+09 2.2908e+09  1.51%     -  114s
H    0     0                    2.256685e+09 2.2908e+09  1.51%     -  118s
     0     0 2.2906e+09    0  254 2.2567e+09 2.2906e+09  1.50%     -  168s
     0     0 2.2906e+09    0  254 2.2567e+09 2.2906e+09  1.50%     -  169s
     0     0 2.2906e+09    0  255 2.2567e+09 2.2906e+09  1.50%     -  169s
     0     0 2.2906e+09    0  268 2.2567e+09 2.2906e+09  1.50%     -  174s
H    0     0                    2.267229e+09 2.2906e+09  1.03%     -  212s
     0     0 2.2906e+09    0  259 2.2672e+09 2.2906e+09  1.03%     -  213s
     0     0 2.2904e+09    0  313 2.2672e+09 2.2904e+09  1.02%     -  248s
     0     0 2.2904e+09    0  295 2.2672e+09 2.2904e+09  1.02%     -  249s
     0     0 2.2904e+09    0  294 2.2672e+09 2.2904e+09  1.02%     -  250s
     0     0 2.2904e+09    0  309 2.2672e+09 2.2904e+09  1.02%     -  257s
H    0     0                    2.269971e+09 2.2904e+09  0.90%     -  281s

Cutting planes:
  Cover: 2
  Implied bound: 22
  Clique: 1
  MIR: 18
  Flow cover: 9
  GUB cover: 2
  Network: 6
  RLT: 21
  Relax-and-lift: 9

Explored 1 nodes (47054 simplex iterations) in 281.98 seconds (256.21 work units)
Thread count was 20 (of 40 available processors)

Solution count 4: 2.26997e+09 2.26723e+09 2.25669e+09 2.25666e+09 

Optimal solution found (tolerance 1.00e-02)
Best objective 2.269970570103e+09, best bound 2.290432806490e+09, gap 0.9014%
Gurobi Optimizer version 10.0.1 build v10.0.1rc0 (linux64)

CPU model: Intel(R) Xeon(R) Gold 5115 CPU @ 2.40GHz, instruction set [SSE2|AVX|AVX2|AVX512]
Thread count: 20 physical cores, 40 logical processors, using up to 20 threads

Optimize a model with 66518 rows, 939572 columns and 4132319 nonzeros
Model fingerprint: 0x1b0a3be1
Variable types: 1879 continuous, 937693 integer (937693 binary)
Coefficient statistics:
  Matrix range     [1e+00, 2e+05]
  Objective range  [4e+01, 3e+07]
  Bounds range     [1e+00, 3e+05]
  RHS range        [1e+00, 1e+06]
Presolve removed 62993 rows and 899409 columns
Presolve time: 1.81s
Presolved: 3525 rows, 40163 columns, 133441 nonzeros
Variable types: 801 continuous, 39362 integer (39362 binary)
Found heuristic solution: objective 1.131629e+09
Deterministic concurrent LP optimizer: primal and dual simplex
Showing first log only...

Concurrent spin time: 0.12s

Solved with primal simplex
Extra simplex iterations after uncrush: 413

Root relaxation: objective 2.029787e+09, 18390 iterations, 0.49 seconds (0.38 work units)

    Nodes    |    Current Node    |     Objective Bounds      |     Work
 Expl Unexpl |  Obj  Depth IntInf | Incumbent    BestBd   Gap | It/Node Time

     0     0 2.0298e+09    0   77 1.1316e+09 2.0298e+09  79.4%     -    2s
H    0     0                    2.016723e+09 2.0298e+09  0.65%     -    3s

Explored 1 nodes (19853 simplex iterations) in 3.33 seconds (2.78 work units)
Thread count was 20 (of 40 available processors)

Solution count 2: 2.01672e+09 1.13163e+09 

Optimal solution found (tolerance 1.00e-02)
Best objective 2.016723057348e+09, best bound 2.029787260818e+09, gap 0.6478%
